c colouring generated by benchmark framework
p edge 450 8263
v 1 7
v 2 17
v 3 21
v 4 24
v 5 2
v 6 12
v 7 24
v 8 12
v 9 5
v 10 7
v 11 15
v 12 20
v 13 0
v 14 7
v 15 8
v 16 8
v 17 22
v 18 6
v 19 0
v 20 11
v 21 8
v 22 14
v 23 12
v 24 12
v 25 17
v 26 12
v 27 8
v 28 1
v 29 8
v 30 16
v 31 18
v 32 12
v 33 24
v 34 17
v 35 19
v 36 3
v 37 5
v 38 1
v 39 18
v 40 20
v 41 16
v 42 0
v 43 6
v 44 23
v 45 14
v 46 17
v 47 6
v 48 0
v 49 16
v 50 15
v 51 12
v 52 8
v 53 3
v 54 13
v 55 20
v 56 0
v 57 23
v 58 4
v 59 4
v 60 7
v 61 21
v 62 6
v 63 23
v 64 8
v 65 7
v 66 3
v 67 15
v 68 9
v 69 0
v 70 20
v 71 9
v 72 2
v 73 10
v 74 14
v 75 17
v 76 3
v 77 0
v 78 5
v 79 1
v 80 22
v 81 10
v 82 17
v 83 19
v 84 3
v 85 4
v 86 24
v 87 23
v 88 9
v 89 5
v 90 4
v 91 21
v 92 5
v 93 1
v 94 21
v 95 5
v 96 0
v 97 24
v 98 15
v 99 12
v 100 10
v 101 10
v 102 11
v 103 10
v 104 18
v 105 17
v 106 22
v 107 10
v 108 4
v 109 18
v 110 15
v 111 6
v 112 13
v 113 20
v 114 7
v 115 14
v 116 4
v 117 1
v 118 23
v 119 2
v 120 12
v 121 21
v 122 14
v 123 10
v 124 5
v 125 11
v 126 12
v 127 0
v 128 20
v 129 22
v 130 2
v 131 10
v 132 1
v 133 10
v 134 0
v 135 6
v 136 8
v 137 13
v 138 6
v 139 22
v 140 3
v 141 24
v 142 9
v 143 15
v 144 8
v 145 0
v 146 16
v 147 5
v 148 15
v 149 5
v 150 24
v 151 22
v 152 18
v 153 23
v 154 13
v 155 7
v 156 13
v 157 19
v 158 7
v 159 23
v 160 7
v 161 19
v 162 20
v 163 0
v 164 11
v 165 0
v 166 24
v 167 23
v 168 6
v 169 7
v 170 7
v 171 1
v 172 16
v 173 5
v 174 17
v 175 17
v 176 13
v 177 20
v 178 14
v 179 9
v 180 18
v 181 7
v 182 12
v 183 9
v 184 10
v 185 13
v 186 12
v 187 17
v 188 4
v 189 0
v 190 11
v 191 21
v 192 11
v 193 22
v 194 8
v 195 2
v 196 14
v 197 14
v 198 3
v 199 9
v 200 18
v 201 0
v 202 9
v 203 18
v 204 4
v 205 5
v 206 3
v 207 18
v 208 21
v 209 16
v 210 22
v 211 8
v 212 1
v 213 12
v 214 23
v 215 6
v 216 4
v 217 0
v 218 8
v 219 22
v 220 5
v 221 14
v 222 0
v 223 24
v 224 15
v 225 18
v 226 22
v 227 0
v 228 8
v 229 1
v 230 6
v 231 9
v 232 18
v 233 7
v 234 0
v 235 19
v 236 3
v 237 15
v 238 6
v 239 4
v 240 8
v 241 12
v 242 13
v 243 6
v 244 7
v 245 2
v 246 17
v 247 5
v 248 19
v 249 16
v 250 0
v 251 24
v 252 16
v 253 1
v 254 11
v 255 13
v 256 13
v 257 22
v 258 8
v 259 10
v 260 1
v 261 9
v 262 18
v 263 2
v 264 24
v 265 10
v 266 5
v 267 10
v 268 10
v 269 24
v 270 16
v 271 11
v 272 17
v 273 5
v 274 0
v 275 7
v 276 0
v 277 23
v 278 9
v 279 7
v 280 11
v 281 14
v 282 11
v 283 4
v 284 24
v 285 6
v 286 7
v 287 3
v 288 20
v 289 15
v 290 19
v 291 16
v 292 4
v 293 8
v 294 8
v 295 7
v 296 6
v 297 1
v 298 18
v 299 14
v 300 1
v 301 20
v 302 19
v 303 10
v 304 10
v 305 3
v 306 9
v 307 4
v 308 9
v 309 13
v 310 11
v 311 2
v 312 2
v 313 3
v 314 19
v 315 23
v 316 6
v 317 5
v 318 24
v 319 0
v 320 10
v 321 11
v 322 6
v 323 19
v 324 23
v 325 20
v 326 10
v 327 1
v 328 9
v 329 20
v 330 6
v 331 4
v 332 15
v 333 7
v 334 4
v 335 12
v 336 14
v 337 18
v 338 17
v 339 23
v 340 15
v 341 2
v 342 8
v 343 19
v 344 2
v 345 1
v 346 3
v 347 18
v 348 2
v 349 12
v 350 9
v 351 17
v 352 24
v 353 21
v 354 9
v 355 4
v 356 2
v 357 16
v 358 21
v 359 13
v 360 14
v 361 24
v 362 3
v 363 12
v 364 18
v 365 16
v 366 21
v 367 2
v 368 3
v 369 24
v 370 21
v 371 8
v 372 11
v 373 13
v 374 11
v 375 23
v 376 2
v 377 21
v 378 12
v 379 1
v 380 5
v 381 19
v 382 22
v 383 14
v 384 13
v 385 12
v 386 11
v 387 22
v 388 20
v 389 11
v 390 22
v 391 6
v 392 21
v 393 2
v 394 0
v 395 0
v 396 0
v 397 1
v 398 6
v 399 11
v 400 23
v 401 11
v 402 22
v 403 2
v 404 8
v 405 24
v 406 14
v 407 1
v 408 0
v 409 14
v 410 24
v 411 24
v 412 0
v 413 17
v 414 0
v 415 8
v 416 4
v 417 16
v 418 24
v 419 12
v 420 2
v 421 16
v 422 18
v 423 15
v 424 23
v 425 23
v 426 5
v 427 12
v 428 17
v 429 16
v 430 4
v 431 18
v 432 9
v 433 20
v 434 14
v 435 0
v 436 3
v 437 18
v 438 22
v 439 9
v 440 4
v 441 2
v 442 2
v 443 1
v 444 23
v 445 0
v 446 3
v 447 23
v 448 1
v 449 6
v 450 10
